
  12    4
  10   10   10   10

   0   0   0   0   0   3 2 3 4 
   2  10  10  10  10   5 11 10 7 6 5 
   4  10  10  10  10   5 10 8 7 6 5 
   1  10  10  10  10   5 10 8 7 6 5 
   6  10  10  10  10   1 9 
   4  10  10  10  10   1 9 
   4  10  10  10  10   1 9 
   5  10  10  10  10   1 9 
   4  10  10  10  10   1 12
   9  10  10  10  10   1 12
   7  10  10  10  10   1 12
   0   0   0   0   0   0 
